(set-info :origin "NTS benchmark converted to SMT-LIB2 using Eldarica (http://lara.epfl.ch/w/eldarica)")
(set-logic HORN)
(declare-fun p (Int Int Int Int Int Int Int Int Int Int Int Int Int Int Int Int Int Int Int Int Int Int Int Int Int Int Int Int Int Int Int) Bool)
(assert(forall((A Int)(B Int)(C Int)(D Int)(E Int)(F Int)(G Int)(H Int)(I Int)(J Int)(K Int)(L Int)(M Int)(N Int)(O Int)(P Int)(Q Int)(R Int)(S Int)(T Int)(U Int)(V Int)(W Int)(X Int)(Y Int)(Z Int)(A1 Int)(B1 Int)(C1 Int)(D1 Int)(E1 Int)(F1 Int)(G1 Int)(H1 Int)(I1 Int)(J1 Int)(K1 Int)(L1 Int)(M1 Int)(N1 Int)(O1 Int)(P1 Int)(Q1 Int)(R1 Int)(S1 Int)(T1 Int)(U1 Int)(V1 Int)(W1 Int)(X1 Int)(Y1 Int))(=>(and (and (= A 3) (and (and (and (and (and (and (and (and (and (and (and (and (and (and (and (and (and (and (and (and (and (and (and (and (and (and (and (and (and (= F1 B) (= G1 C)) (= H1 D)) (= I1 E)) (= J1 F)) (= K1 G)) (= L1 H)) (= M1 I)) (= N1 J)) (= O1 K)) (= P1 L)) (= Q1 M)) (= R1 N)) (= S1 O)) (= T1 P)) (= F1 Q)) (= G1 R)) (= H1 S)) (= I1 T)) (= U1 U)) (= K1 V)) (= L1 W)) (= V1 X)) (= G1 Y)) (= W1 Z)) (= G1 A1)) (= X1 B1)) (= G1 C1)) (= Y1 D1)) (= G1 E1))) (and (and (and (and (and (not (not (>= (+ (+ G1 (- 11)) 0) 0))) (not (not (= (* (- 1) Y1) (- 1))))) (not (not (= (* (- 1) X1) (- 1))))) (not (not (= (* (- 1) W1) (- 1))))) (not (not (= (* (- 1) V1) (- 1))))) (not (not (= (+ G1 (- 1)) U1))))) (p A B C D E F G H I J K L M N O P Q R S T U V W X Y Z A1 B1 C1 D1 E1))))
(assert(forall((A Int)(B Int)(C Int)(D Int)(E Int)(F Int)(G Int)(H Int)(I Int)(J Int)(K Int)(L Int)(M Int)(N Int)(O Int)(P Int)(Q Int)(R Int)(S Int)(T Int)(U Int)(V Int)(W Int)(X Int)(Y Int)(Z Int)(A1 Int)(B1 Int)(C1 Int)(D1 Int)(E1 Int)(F1 Int)(G1 Int)(H1 Int)(I1 Int)(J1 Int)(K1 Int)(L1 Int)(M1 Int)(N1 Int)(O1 Int)(P1 Int)(Q1 Int)(R1 Int)(S1 Int)(T1 Int)(U1 Int)(V1 Int)(W1 Int)(X1 Int)(Y1 Int)(Z1 Int)(A2 Int)(B2 Int)(C2 Int)(D2 Int)(E2 Int)(F2 Int)(G2 Int)(H2 Int)(I2 Int)(J2 Int)(K2 Int)(L2 Int)(M2 Int)(N2 Int)(O2 Int)(P2 Int)(Q2 Int)(R2 Int)(S2 Int)(T2 Int)(U2 Int)(V2 Int)(W2 Int)(X2 Int)(Y2 Int)(Z2 Int)(A3 Int)(B3 Int)(C3 Int)(D3 Int)(E3 Int)(F3 Int)(G3 Int)(H3 Int)(I3 Int)(J3 Int)(K3 Int)(L3 Int)(M3 Int)(N3 Int)(O3 Int)(P3 Int))(=>(and (or (and (and (and (and (= A 1) (= F1 2)) (and (and (and (and (and (and (and (and (and (and (and (and (and (and (and (and (and (and (and (and (and (and (and (and (and (and (and (and (and (= G1 B) (= H1 C)) (= I1 D)) (= J1 E)) (= K1 F)) (= L1 G)) (= M1 H)) (= N1 I)) (= O1 J)) (= P1 K)) (= Q1 L)) (= R1 M)) (= S1 N)) (= T1 O)) (= U1 P)) (= V1 Q)) (= W1 R)) (= X1 S)) (= Y1 T)) (= Z1 U)) (= A2 V)) (= B2 W)) (= C2 X)) (= D2 Y)) (= E2 Z)) (= F2 A1)) (= G2 B1)) (= H2 C1)) (= I2 D1)) (= J2 E1))) (and (and (and (and (and (and (and (and (and (and (and (and (and (and (and (and (and (and (and (and (and (and (and (and (and (and (and (and (and (= G1 K2) (= H1 L2)) (= I1 M2)) (= J1 N2)) (= K1 O2)) (= L1 P2)) (= M1 Q2)) (= N1 R2)) (= O1 S2)) (= P1 T2)) (= Q1 U2)) (= R1 V2)) (= S1 W2)) (= T1 X2)) (= U1 Y2)) (= V1 Z2)) (= W1 A3)) (= X1 B3)) (= Y1 C3)) (= Z1 D3)) (= E3 F3)) (= G3 H3)) (= C2 I3)) (= D2 J3)) (= E2 K3)) (= F2 L3)) (= G2 M3)) (= H2 N3)) (= I2 O3)) (= J2 P3))) (and (and (and (and (and (and (and (not (not (>= (+ (- E3 G2) 0) 0))) (not (not (>= (+ (- E3 E2) 0) 0)))) (not (not (>= (+ (- H2 E3) 0) 0)))) (not (not (>= (+ (- F2 E3) 0) 0)))) (not (not (>= (+ (- Z1 C2) 0) 0)))) (not (not (>= (+ (- D2 Z1) 0) 0)))) (not (not (>= (+ (- W1 E3) 0) 0)))) (not (not (= (+ E3 1) A2))))) (and (and (and (and (= A 2) (= F1 3)) (and (and (and (and (and (and (and (and (and (and (and (and (and (and (and (and (and (and (and (and (and (and (and (and (and (and (and (and (and (= G1 B) (= H1 C)) (= I1 D)) (= J1 E)) (= K1 F)) (= L1 G)) (= M1 H)) (= N1 I)) (= O1 J)) (= P1 K)) (= Q1 L)) (= R1 M)) (= S1 N)) (= T1 O)) (= U1 P)) (= V1 Q)) (= W1 R)) (= X1 S)) (= Y1 T)) (= Z1 U)) (= A2 V)) (= B2 W)) (= C2 X)) (= D2 Y)) (= E2 Z)) (= F2 A1)) (= G2 B1)) (= H2 C1)) (= I2 D1)) (= J2 E1))) (and (and (and (and (and (and (and (and (and (and (and (and (and (and (and (and (and (and (and (and (and (and (and (and (and (and (and (and (and (= G1 K2) (= H1 L2)) (= I1 M2)) (= J1 N2)) (= K1 O2)) (= L1 P2)) (= M1 Q2)) (= N1 R2)) (= O1 S2)) (= P1 T2)) (= Q1 U2)) (= R1 V2)) (= S1 W2)) (= T1 X2)) (= U1 Y2)) (= V1 Z2)) (= W1 A3)) (= X1 B3)) (= Y1 C3)) (= Z1 D3)) (= E3 F3)) (= G3 H3)) (= C2 I3)) (= D2 J3)) (= E2 K3)) (= F2 L3)) (= G2 M3)) (= H2 N3)) (= I2 O3)) (= J2 P3))) (and (and (not (not (>= (+ (+ Z1 (- 1)) 0) 0))) (not (not (= (* (- 1) B2) 0)))) (not (not (= (+ Z1 1) A2)))))) (p F1 K2 L2 M2 N2 O2 P2 Q2 R2 S2 T2 U2 V2 W2 X2 Y2 Z2 A3 B3 C3 D3 F3 H3 I3 J3 K3 L3 M3 N3 O3 P3)) (p A B C D E F G H I J K L M N O P Q R S T U V W X Y Z A1 B1 C1 D1 E1))))
(assert(not (exists((A Int)(B Int)(C Int)(D Int)(E Int)(F Int)(G Int)(H Int)(I Int)(J Int)(K Int)(L Int)(M Int)(N Int)(O Int)(P Int)(Q Int)(R Int)(S Int)(T Int)(U Int)(V Int)(W Int)(X Int)(Y Int)(Z Int)(A1 Int)(B1 Int)(C1 Int)(D1 Int)(E1 Int)(F1 Int)(G1 Int)(H1 Int)(I1 Int)(J1 Int)(K1 Int)(L1 Int)(M1 Int)(N1 Int)(O1 Int)(P1 Int)(Q1 Int)(R1 Int)(S1 Int)(T1 Int)(U1 Int)(V1 Int)(W1 Int)(X1 Int)(Y1 Int)(Z1 Int)(A2 Int)(B2 Int)(C2 Int)(D2 Int)(E2 Int)(F2 Int)(G2 Int)(H2 Int)(I2 Int))(and (and (and (= A 1) (and (and (and (and (and (and (and (and (and (and (and (and (and (and (and (and (and (and (and (and (and (and (and (and (and (and (and (and (and (= B C) (= D E)) (= F G)) (= H I)) (= J K)) (= L M)) (= N O)) (= P Q)) (= R S)) (= T U)) (= V W)) (= X Y)) (= Z A1)) (= B1 C1)) (= D1 E1)) (= F1 G1)) (= H1 I1)) (= J1 K1)) (= L1 M1)) (= N1 O1)) (= P1 Q1)) (= R1 S1)) (= T1 U1)) (= V1 W1)) (= X1 Y1)) (= Z1 A2)) (= B2 C2)) (= D2 E2)) (= F2 G2)) (= H2 I2))) (and (not (not (>= (+ (+ (- F2 N1) (- 1)) 0) 0))) (not (not (>= (+ (+ (- P1 H1) (- 1)) 0) 0))))) (p A C E G I K M O Q S U W Y A1 C1 E1 G1 I1 K1 M1 O1 Q1 S1 U1 W1 Y1 A2 C2 E2 G2 I2)))))
(check-sat)
